NAME: oliver10
COMMENT : 10 locations
COMMENT : Best: 423.741
TYPE: TSP
DIMENSION: 10
EDGE_WEIGHT_TYPE: EUC_2D
NODE_COORD_SECTION
1 54 67
2 54 62
3 37 84
4 41 94
5 2 99
6 7 64
7 25 62
8 22 60
9 18 54
10 4 50
